2638.53
0 67 13 4 10 9 2 3 8 7 6 1 11 5 0
0 16 21 20 22 23 24 96 14 18 141 19 15 17 12 0
0 36 35 29 34 30 33 40 25 26 31 28 32 27 37 0
0 48 43 41 42 44 52 45 39 105 50 49 38 51 46 47 0
0 53 59 70 60 61 57 58 55 56 63 142 64 65 54 62 0
0 79 74 75 73 72 66 86 69 80 76 71 78 77 68 0
0 84 85 83 82 81 95 94 88 87 92 93 91 89 90 0
0 98 97 99 114 101 100 104 106 107 110 102 103 108 0
0 123 117 118 128 115 116 109 111 112 113 120 119 0
0 124 125 122 134 133 132 138 140 121 131 129 130 127 126 0
0 143 136 135 137 144 145 146 139 0
0 149 148 150 147 0
